(declare-fun b35 () (_ FloatingPoint 8 24))
(declare-fun b11 () (_ FloatingPoint 8 24))
(declare-fun b17 () (_ FloatingPoint 8 24))
(declare-fun b20 () (_ FloatingPoint 8 24))
(declare-fun b10 () (_ FloatingPoint 8 24))
(declare-fun b14 () (_ FloatingPoint 8 24))
(assert (let ((.def_29 (fp.lt b35 b17)))
(let ((.def_27 (fp.lt b17 b20)))
(let ((.def_25 (fp.lt b35 b14)))
(let ((.def_23 (fp.lt b14 b20)))
(let ((.def_21 (fp.lt b35 b11)))
(let ((.def_13 (fp.div RNE b10 b11)))
(let ((.def_15 (fp.div RNE .def_13 b14)))
(let ((.def_17 (fp.div RNE .def_15 b17)))
(let ((.def_18 (fp.lt .def_17 b20)))
(let ((.def_11 (fp.lt b11 b20)))
(let ((.def_19 (and .def_11 .def_18)))
(let ((.def_22 (and .def_19 .def_21)))
(let ((.def_24 (and .def_22 .def_23)))
(let ((.def_26 (and .def_24 .def_25)))
(let ((.def_28 (and .def_26 .def_27)))
(let ((.def_30 (and .def_28 .def_29)))
.def_30)))))))))))))))))
(check-sat)
